decision_x1=[0,4];
decision_x2=[0,4];
decision_x3=[0,4];
decision_x4=[0,4];
decision_x5=[0,4];
random_y1=[0,4];
constraint_x3_x1=[
0,1,6.1|
0,2,7.2|
0,3,7.5|
0,4,3.8|
1,0,9.8|
1,2,7.3|
1,3,7.4|
1,4,6.4|
2,0,4.5|
2,1,6.6|
2,3,8.9|
2,4,4.3|
3,0,2.7|
3,1,1.8|
3,2,8.5|
3,4,3|
4,0,2|
4,1,3.6|
4,2,3.4|
4,3,1.2|
];
constraint_x4_x2=[
0,1,9.5|
0,2,1.4|
0,3,4.3|
0,4,7.7|
1,0,0.66|
1,2,2.3|
1,3,2.7|
1,4,6.7|
2,0,9.3|
2,1,8.9|
2,3,1.6|
2,4,6.9|
3,0,3.4|
3,1,6.7|
3,2,2.4|
3,4,7|
4,0,2.9|
4,1,3.8|
4,2,2.6|
4,3,8.6|
];
constraint_x5_x1=[
0,1,1.5|
0,2,2.2|
0,3,8.9|
0,4,6.6|
1,0,2.9|
1,2,0.044|
1,3,4.9|
1,4,2.1|
2,0,8.3|
2,1,3.6|
2,3,5.6|
2,4,0.95|
3,0,8.7|
3,1,6.8|
3,2,6.4|
3,4,7.4|
4,0,8.5|
4,1,8.2|
4,2,0.34|
4,3,0.083|
];
constraint_x5_x3=[
0,1,6.5|
0,2,4.4|
0,3,2.5|
0,4,8.9|
1,0,5.7|
1,2,9.7|
1,3,8.6|
1,4,1.2|
2,0,5|
2,1,9.5|
2,3,8.4|
2,4,5.6|
3,0,0.58|
3,1,8.6|
3,2,6.8|
3,4,9|
4,0,7.8|
4,1,6.4|
4,2,9.5|
4,3,5.5|
];
constraint_x5_x4=[
0,1,6.4|
0,2,7.4|
0,3,3.5|
0,4,2.3|
1,0,1.7|
1,2,9.9|
1,3,7.2|
1,4,2|
2,0,6.6|
2,1,5.1|
2,3,8.8|
2,4,3.9|
3,0,7.4|
3,1,3.3|
3,2,8.6|
3,4,1.1|
4,0,6.5|
4,1,6.3|
4,2,1.4|
4,3,9.8|
];
constraint_x1_y1=[
0,0,7.7|
0,1,4.9|
0,2,6.8|
0,3,0.88|
0,4,9.3|
1,0,1.9|
1,1,7.6|
1,2,5.2|
1,3,5.6|
1,4,8|
2,0,8.7|
2,1,3.5|
2,2,9.4|
2,3,2.7|
2,4,5.2|
3,0,6.2|
3,1,5|
3,2,4.9|
3,3,4.4|
3,4,5.8|
4,0,8.3|
4,1,5.5|
4,2,8.9|
4,3,6.9|
4,4,7.9|
];
initial_distribution_y1=[0.051,0.12,0.18,0.25,0.4];
transition_y1=[
0.27,0.27,0.23,0.054,0.17|
0.23,0.57,0.098,0.036,0.061|
0.18,0.12,0.018,0.5,0.19|
0.13,0.16,0.27,0.27,0.17|
0.17,0.44,0.18,0.2,0.013|
];
